\ENCODING=ISO-8859-1
\Problem name: 

Minimize
 obj1: 99999 x(0,0) + 10 x(0,1) + 15 x(0,2) + 12 x(0,3) + 20 x(0,4) + 40 x(0,5)
       + 12 x(0,6) + 10 x(1,0) + 99999 x(1,1) + 5 x(1,2) + 2 x(1,3) + 10 x(1,4)
       + 32 x(1,5) + 50 x(1,6) + 15 x(2,0) + 5 x(2,1) + 99999 x(2,2) + 7 x(2,3)
       + 8 x(2,4) + 17 x(2,5) + 32 x(2,6) + 12 x(3,0) + 2 x(3,1) + 7 x(3,2)
       + 99999 x(3,3) + 6 x(3,4) + 33 x(3,5) + 21 x(3,6) + 20 x(4,0)
       + 10 x(4,1) + 8 x(4,2) + 6 x(4,3) + 99999 x(4,4) + 27 x(4,5) + 24 x(4,6)
       + 40 x(5,0) + 32 x(5,1) + 17 x(5,2) + 33 x(5,3) + 27 x(5,4)
       + 99999 x(5,5) + 9 x(5,6) + 12 x(6,0) + 50 x(6,1) + 32 x(6,2)
       + 21 x(6,3) + 24 x(6,4) + 9 x(6,5) + 99999 x(6,6)
Subject To
 c1:  x(0,0) + x(0,1) + x(0,2) + x(0,3) + x(0,4) + x(0,5) + x(0,6)  = 1
 c2:  x(1,0) + x(1,1) + x(1,2) + x(1,3) + x(1,4) + x(1,5) + x(1,6)  = 1
 c3:  x(2,0) + x(2,1) + x(2,2) + x(2,3) + x(2,4) + x(2,5) + x(2,6)  = 1
 c4:  x(3,0) + x(3,1) + x(3,2) + x(3,3) + x(3,4) + x(3,5) + x(3,6)  = 1
 c5:  x(4,0) + x(4,1) + x(4,2) + x(4,3) + x(4,4) + x(4,5) + x(4,6)  = 1
 c6:  x(5,0) + x(5,1) + x(5,2) + x(5,3) + x(5,4) + x(5,5) + x(5,6)  = 1
 c7:  x(6,0) + x(6,1) + x(6,2) + x(6,3) + x(6,4) + x(6,5) + x(6,6)  = 1
 c8:  x(0,0) + x(1,0) + x(2,0) + x(3,0) + x(4,0) + x(5,0) + x(6,0)  = 1
 c9:  x(0,1) + x(1,1) + x(2,1) + x(3,1) + x(4,1) + x(5,1) + x(6,1)  = 1
 c10: x(0,2) + x(1,2) + x(2,2) + x(3,2) + x(4,2) + x(5,2) + x(6,2)  = 1
 c11: x(0,3) + x(1,3) + x(2,3) + x(3,3) + x(4,3) + x(5,3) + x(6,3)  = 1
 c12: x(0,4) + x(1,4) + x(2,4) + x(3,4) + x(4,4) + x(5,4) + x(6,4)  = 1
 c13: x(0,5) + x(1,5) + x(2,5) + x(3,5) + x(4,5) + x(5,5) + x(6,5)  = 1
 c14: x(0,6) + x(1,6) + x(2,6) + x(3,6) + x(4,6) + x(5,6) + x(6,6)  = 1
 c15: x(0,1) + x(0,3) + x(1,0) + x(1,3) + x(3,0) + x(3,1) <= 2
 c16: x(2,4) + x(4,2) <= 1
 c17: x(5,6) + x(6,5) <= 1
Bounds
 0 <= x(0,0) <= Inf
 0 <= x(0,1) <= Inf
 0 <= x(0,2) <= Inf
 0 <= x(0,3) <= Inf
 0 <= x(0,4) <= Inf
 0 <= x(0,5) <= Inf
 0 <= x(0,6) <= Inf
 0 <= x(1,0) <= Inf
 0 <= x(1,1) <= Inf
 0 <= x(1,2) <= Inf
 0 <= x(1,3) <= Inf
 0 <= x(1,4) <= Inf
 0 <= x(1,5) <= Inf
 0 <= x(1,6) <= Inf
 0 <= x(2,0) <= Inf
 0 <= x(2,1) <= Inf
 0 <= x(2,2) <= Inf
 0 <= x(2,3) <= Inf
 0 <= x(2,4) <= Inf
 0 <= x(2,5) <= Inf
 0 <= x(2,6) <= Inf
 0 <= x(3,0) <= Inf
 0 <= x(3,1) <= Inf
 0 <= x(3,2) <= Inf
 0 <= x(3,3) <= Inf
 0 <= x(3,4) <= Inf
 0 <= x(3,5) <= Inf
 0 <= x(3,6) <= Inf
 0 <= x(4,0) <= Inf
 0 <= x(4,1) <= Inf
 0 <= x(4,2) <= Inf
 0 <= x(4,3) <= Inf
 0 <= x(4,4) <= Inf
 0 <= x(4,5) <= Inf
 0 <= x(4,6) <= Inf
 0 <= x(5,0) <= Inf
 0 <= x(5,1) <= Inf
 0 <= x(5,2) <= Inf
 0 <= x(5,3) <= Inf
 0 <= x(5,4) <= Inf
 0 <= x(5,5) <= Inf
 0 <= x(5,6) <= Inf
 0 <= x(6,0) <= Inf
 0 <= x(6,1) <= Inf
 0 <= x(6,2) <= Inf
 0 <= x(6,3) <= Inf
 0 <= x(6,4) <= Inf
 0 <= x(6,5) <= Inf
 0 <= x(6,6) <= Inf
Binaries
 x(0,0)  x(0,1)  x(0,2)  x(0,3)  x(0,4)  x(0,5)  x(0,6)  x(1,0)  x(1,1) 
 x(1,2)  x(1,3)  x(1,4)  x(1,5)  x(1,6)  x(2,0)  x(2,1)  x(2,2)  x(2,3) 
 x(2,4)  x(2,5)  x(2,6)  x(3,0)  x(3,1)  x(3,2)  x(3,3)  x(3,4)  x(3,5) 
 x(3,6)  x(4,0)  x(4,1)  x(4,2)  x(4,3)  x(4,4)  x(4,5)  x(4,6)  x(5,0) 
 x(5,1)  x(5,2)  x(5,3)  x(5,4)  x(5,5)  x(5,6)  x(6,0)  x(6,1)  x(6,2) 
 x(6,3)  x(6,4)  x(6,5)  x(6,6) 
End
